c SAT Generator for power-law distributed variable frequencies
c -g u -v 20 -c 91 -k 3 -p 2.750000 -b 3.200000 -f /home/schmidt/Devel/ni-kop-sat/data/ensemble/ruf20-91/ruf20-91-59 -u 1 -U 1 -s 2484716537
p cnf 20 91
7 -17 19 0
1 3 -8 0
3 -10 13 0
2 -18 20 0
4 6 7 0
-3 -15 18 0
11 -14 15 0
12 -14 16 0
3 5 -18 0
1 -5 -11 0
4 -7 -10 0
8 -11 -17 0
12 14 20 0
-1 4 -16 0
14 17 -18 0
4 -18 -19 0
2 -8 16 0
-2 4 9 0
-2 4 -10 0
11 13 18 0
-10 -14 -20 0
1 14 -15 0
-5 6 15 0
-10 -14 17 0
-6 -8 9 0
-7 -14 -17 0
1 2 16 0
-8 11 -18 0
2 -13 -17 0
4 -5 -20 0
2 -14 15 0
-6 17 -18 0
2 -3 -9 0
-3 11 18 0
-7 -13 -18 0
11 -12 16 0
-2 11 -17 0
-11 16 20 0
8 16 18 0
5 -10 -12 0
2 -10 -11 0
10 -18 20 0
12 -16 -18 0
2 -6 -15 0
3 -13 14 0
-1 7 19 0
-7 -16 -18 0
3 -8 15 0
4 5 12 0
-10 -14 15 0
7 -12 -18 0
-2 7 12 0
-5 -18 20 0
-2 -8 10 0
7 -11 -19 0
1 -5 16 0
1 -4 10 0
-1 9 14 0
-2 -12 13 0
3 -10 12 0
1 3 14 0
11 -13 -15 0
13 -17 -19 0
5 6 7 0
-10 16 19 0
-2 7 14 0
-14 16 -17 0
-10 -15 20 0
3 -9 14 0
12 14 -17 0
-4 -14 -20 0
4 -5 -15 0
8 14 16 0
3 -5 -11 0
13 14 16 0
4 -5 19 0
-2 13 19 0
2 -6 -13 0
6 14 -18 0
-7 -18 -20 0
3 -11 17 0
11 12 -14 0
3 13 -14 0
-3 -6 -18 0
-2 8 17 0
-7 14 19 0
-2 3 6 0
10 -11 12 0
6 11 12 0
-5 13 14 0
-6 -10 15 0
